000 000 000 000 000 000 000 000 -99 -99 -99 -99 -99 000 000 -99 -99 -99 000 000 -99 -99 -99 -99 000 000 000 000 -99 -99 -99
000 000 000 000 000 000 000 000 000 -99 -99 -99 -99 000 000 000 -99 -99 -99 000 000 -99 -99 -99 000 000 000 000 -99 -99 -99
000 000 000 000 000 000 000 000 000 -99 -99 -99 -99 -99 000 000 -99 000 -99 000 000 000 000 000 000 000 000 000 000 -99 -99
000 000 000 000 000 000 000 000 000 -99 -99 000 000 -99 -99 000 000 000 000 000 000 000 000 000 000 000 000 000 -99 -99 -99
000 000 000 000 000 000 000 000 000 000 000 000 000 000 000 -99 -99 000 000 000 001 000 000 000 001 001 001 000 000 -99 -99
000 000 000 000 000 000 000 000 000 000 000 000 000 001 000 -99 -99 000 000 000 001 001 000 001 001 000 001 000 000 -99 000
000 000 000 000 000 000 -99 000 000 000 000 000 001 003 000 000 000 000 000 000 000 000 001 002 001 001 002 -99 -99 002 002
000 000 000 000 000 000 000 000 000 000 002 003 002 005 001 000 000 000 000 001 000 000 001 001 001 003 002 001 -99 002 002
001 000 000 000 000 000 000 000 000 000 001 006 006 003 001 000 000 000 000 000 000 000 001 001 001 005 003 001 000 001 002
001 000 000 000 000 000 000 000 000 001 001 005 004 001 000 000 000 000 000 000 000 000 001 002 001 003 004 001 000 000 001
001 000 000 000 000 000 000 000 000 001 001 002 002 000 000 000 000 000 000 000 000 000 002 003 001 003 003 000 000 000 001
001 000 000 000 000 000 000 000 000 001 002 000 001 000 000 000 000 000 000 001 000 001 002 005 003 004 002 001 000 000 000
001 000 000 000 000 000 000 000 000 000 000 000 000 000 000 000 000 -99 000 000 000 000 003 005 006 005 002 001 000 000 000
001 000 000 000 000 000 000 000 -99 000 000 000 000 000 000 000 000 -99 000 000 001 001 007 009 005 003 002 000 000 000 000
002 000 000 000 000 000 000 000 -99 -99 000 000 000 000 000 000 000 000 000 000 002 003 008 012 005 002 002 001 000 000 000
001 000 000 000 000 000 000 000 000 -99 -99 000 000 000 000 000 000 000 000 000 002 005 006 011 005 002 001 001 000 000 000
000 000 000 000 000 000 000 000 000 -99 -99 -99 -99 000 000 000 000 000 000 000 000 003 005 007 005 002 001 001 000 000 000
001 000 000 000 000 000 000 000 000 -99 -99 -99 -99 000 000 000 000 001 000 000 000 002 002 004 001 001 001 001 001 000 000
001 000 000 000 -99 000 000 000 000 -99 -99 000 -99 000 000 000 000 001 000 000 001 000 002 002 001 001 001 001 002 001 001
001 001 000 000 000 -99 000 000 000 -99 000 000 -99 -99 000 000 000 000 000 000 000 000 000 000 -99 001 000 001 002 001 001
000 000 000 000 000 000 -99 000 000 000 000 -99 -99 -99 -99 000 000 000 000 000 000 000 000 001 -99 001 001 003 005 002 -99
000 000 000 000 000 000 000 000 000 000 000 -99 -99 -99 000 000 000 000 000 000 000 000 000 001 -99 001 001 003 004 002 002
000 000 000 000 000 000 000 000 000 000 000 000 -99 000 000 000 000 000 000 000 000 000 000 -99 -99 -99 -99 -99 004 002 002
000 000 000 000 000 000 000 000 000 000 000 000 000 000 000 000 000 000 000 000 001 000 000 -99 -99 -99 -99 -99 -99 002 002
000 000 000 000 000 000 000 000 000 000 000 000 000 000 000 000 000 000 000 000 000 000 000 -99 -99 -99 -99 -99 -99 001 002
000 000 000 000 000 000 000 000 000 000 000 000 000 000 000 000 000 000 000 000 000 000 000 -99 -99 -99 -99 -99 -99 001 001
000 000 000 000 000 000 000 000 000 000 000 000 000 000 000 000 000 000 000 000 000 000 000 -99 -99 -99 -99 -99 -99 001 001
000 000 000 000 000 000 000 000 000 000 000 000 000 000 000 000 000 000 000 -99 000 000 000 -99 -99 -99 -99 -99 -99 000 000
000 000 000 000 000 000 000 000 000 000 000 000 000 000 000 000 000 000 000 -99 000 000 -99 -99 -99 -99 -99 -99 000 000 000
000 000 000 000 000 000 000 000 000 000 -99 -99 -99 000 000 000 000 000 000 -99 000 000 -99 -99 -99 -99 -99 -99 000 000 000
000 000 000 000 000 000 000 000 000 -99 -99 -99 000 000 000 000 000 000 000 -99 000 000 -99 -99 000 000 000 -99 000 -99 000
000 000 000 000 000 000 000 000 000 000 -99 -99 -99 000 -99 -99 000 000 000 -99 000 000 -99 000 000 000 000 -99 000 -99 000
000 000 000 000 000 000 000 000 000 000 -99 -99 -99 000 000 -99 000 000 000 -99 -99 000 -99 000 000 000 000 000 000 -99 000
000 000 000 000 000 000 000 000 000 000 -99 -99 -99 000 000 000 000 000 000 000 -99 000 -99 000 000 000 000 000 000 000 000
000 000 000 000 000 000 000 000 000 000 000 -99 000 000 000 000 000 000 000 000 -99 -99 000 000 000 000 000 000 000 000 000
000 000 000 000 000 -99 000 000 000 000 000 000 000 000 000 000 000 -99 -99 000 000 000 000 000 000 000 000 000 000 000 000
000 000 000 000 000 -99 -99 000 000 000 000 000 000 000 000 000 000 000 000 000 000 000 000 -99 000 000 000 000 000 000 -99
000 000 000 000 000 000 -99 000 000 000 -99 000 000 000 000 000 000 000 000 000 000 000 000 000 000 000 000 000 000 000 -99
000 000 000 000 000 000 -99 -99 000 000 -99 000 000 000 000 000 000 000 -99 000 000 000 000 000 000 000 000 000 000 000 000
000 000 000 000 000 -99 -99 -99 -99 -99 -99 000 000 000 000 000 000 000 -99 000 000 -99 -99 000 000 000 000 000 000 000 000
000 000 000 000 000 000 000 -99 -99 000 000 000 000 000 000 000 000 000 000 000 000 000 000 000 000 000 000 -99 -99 000 000
000 000 -99 000 -99 000 000 -99 -99 000 000 000 000 000 000 000 000 000 000 000 000 000 000 000 000 -99 -99 -99 000 000 000
000 000 -99 -99 000 000 000 -99 000 000 000 000 000 000 000 000 000 000 000 000 000 000 000 000 000 000 -99 -99 000 -99 000
000 -99 -99 -99 -99 000 000 -99 -99 000 000 000 000 000 000 000 000 000 000 000 000 000 000 000 000 000 -99 -99 000 -99 -99
000 -99 -99 -99 000 000 000 -99 -99 -99 000 000 000 000 000 000 -99 000 000 000 000 000 000 000 000 -99 000 000 000 -99 000
000 -99 -99 000 000 -99 -99 -99 -99 000 000 000 000 000 000 -99 -99 000 000 000 000 000 000 000 000 -99 000 000 -99 -99 000
000 -99 -99 000 000 -99 -99 -99 -99 -99 000 000 000 000 000 -99 -99 000 000 000 000 000 000 000 -99 000 000 000 000 000 000
-99 -99 -99 000 -99 -99 000 -99 000 000 000 000 000 000 000 -99 -99 000 -99 000 000 000 000 000 000 000 -99 000 000 000 000
-99 -99 -99 -99 -99 -99 000 000 000 000 -99 -99 000 000 000 -99 -99 000 -99 000 000 000 000 000 000 000 -99 000 000 -99 000
-99 -99 -99 -99 -99 -99 000 000 000 000 -99 -99 000 000 -99 -99 -99 000 -99 000 000 000 000 000 000 000 000 000 000 000 000
-99 -99 -99 -99 -99 -99 -99 000 -99 -99 -99 -99 -99 -99 -99 -99 -99 -99 000 000 000 000 000 000 000 -99 000 -99 000 000 000
-99 -99 -99 -99 -99 -99 -99 -99 -99 -99 -99 -99 -99 -99 -99 -99 -99 -99 000 000 -99 000 000 000 000 -99 000 000 000 000 000
-99 -99 -99 -99 -99 -99 -99 -99 -99 -99 -99 -99 -99 -99 -99 -99 -99 000 000 000 -99 -99 -99 -99 -99 -99 -99 000 000 000 000
-99 -99 -99 -99 -99 -99 -99 -99 -99 -99 -99 -99 -99 -99 -99 -99 000 000 000 -99 -99 -99 -99 -99 -99 000 000 000 000 000 000
-99 -99 -99 -99 -99 000 000 000 -99 -99 -99 -99 -99 -99 -99 000 000 000 -99 -99 -99 -99 -99 -99 -99 000 000 000 000 -99 000
